InboundTrucks  = 20;
OutboundTrucks = 13;
InboundDoors   = 5;
OutboundDoors  = 5;
ReleaseTime    = [97,49,82,60,52,111,25,25,86,50,7,54,56,108,57,4,115,67,41,25];
UnloadTime     = [25,41,43,22,35,30,40,18,37,39,12,43,25,26,38,40,41,27,12,21];
LoadTime       = [25,29,8,6,17,13,5,10,11,11,8,16,9];
TransferTime   = [| 0,0,0,49,32,28,0,0,0,0,0,0,0 | 0,0,0,0,32,0,22,0,42,0,0,20,0 | 0,0,0,0,0,0,0,0,0,0,0,38,0 | 0,16,20,0,0,0,0,34,22,0,0,36,0 | 44,23,0,24,0,0,27,24,0,13,45,12,0 | 0,0,0,0,0,0,0,0,0,0,0,22,45 | 0,0,0,0,0,0,0,30,0,0,0,0,0 | 0,0,0,0,0,47,0,40,0,0,0,0,33 | 0,0,22,0,38,12,0,0,0,19,0,0,12 | 0,0,0,14,48,29,0,0,0,0,0,0,22 | 0,0,0,0,0,0,0,0,0,0,0,0,22 | 0,0,0,0,0,0,0,0,0,49,0,0,0 | 0,0,0,0,0,0,15,0,0,0,0,21,0 | 0,39,0,14,0,14,0,0,0,0,0,26,29 | 31,0,0,22,0,0,0,0,0,50,0,0,0 | 19,0,0,0,45,0,0,0,0,0,31,0,0 | 0,0,0,0,0,0,0,0,0,25,0,27,32 | 0,15,0,0,0,0,43,0,32,0,14,26,0 | 0,0,0,0,0,29,45,0,0,0,48,42,0 | 0,35,0,0,47,0,0,0,26,0,32,0,0 |];
